res/reach3.cnf
p cnf 66 67
-1 0
-2 3 0
-4 5 0
-6 7 0
-8 7 9 0
-10 7 11 9 0
-12 0
-13 10 0
-14 1 0
-15 4 0
-16 4 6 0
-17 4 8 6 0
-18 0
-19 17 0
-20 12 0
-21 14 0
-22 14 15 0
-23 14 16 15 0
-24 0
-25 23 0
-26 18 0
-27 20 0
-28 20 21 0
-29 20 22 21 0
-30 0
-31 29 0
-32 24 0
-33 26 0
-34 26 27 0
-35 26 28 27 0
-36 0
-37 35 0
-38 30 0
-39 32 0
-40 32 33 0
-41 32 34 33 0
-42 0
-43 41 0
-44 36 0
-45 38 0
-46 38 39 0
-47 38 40 39 0
-48 0
-49 47 0
-50 42 0
-51 44 0
-52 44 45 0
-53 44 46 45 0
-54 0
-55 53 0
-56 48 0
-57 50 0
-58 50 51 0
-59 50 52 51 0
-60 0
-61 59 0
-62 54 0
-63 56 0
-64 56 57 0
-65 56 58 57 0
-66 0
-7 0
-9 0
-11 0
-3 0
2 13 19 25 31 37 43 49 55 61 0
5 0
