py/reach3.txt
6 8
0 2
2 3
2 4
2 5
4 5
3 4
3 5
5 1